CsPbBr3                                 
   1.00000000000000     
     5.8100000000000000    0.0000000000000000    0.0000000000000000
     0.0000000000000000    5.8100000000000000    0.0000000000000000
     0.0000000000000000    0.0000000000000000    5.8100000000000000
   Pb   Cs   Br
     1     1     3
Direct
  0.0000000000000000  0.0000000000000000  0.0000000000000000
  0.5000000000000000  0.5000000000000000  0.5000000000000000
  0.5000000000000000  0.0000000000000000  0.0000000000000000
  0.0000000000000000  0.5000000000000000  0.0000000000000000
  0.0000000000000000  0.0000000000000000  0.5000000000000000
